&inputpp 
   outdir = '/scratch2/scratchdirs/chunjing/tmp_espresso/'
   prefix = 'MoS2'
   seedname = 'MoS2'
   spin_component = 'none'
   write_mmn = .true.
   write_amn = .true.
   write_unk = .true.
/
