 &control
    calculation = 'nscf',
    restart_mode='from_scratch',
    prefix='MoS2',
    outdir='/scratch2/scratchdirs/chunjing/tmp_espresso/'
 /
 &system
    ibrav=  4, celldm(1)= 6.035000, celldm(3)= 9.991715,
    nat=  3, ntyp= 2, ecutwfc = 40.0, ecutrho = 450,
    occupations='smearing', smearing='cold', degauss=0.02
 /
 &electrons
    conv_thr =  1.0d-10
 /
ATOMIC_SPECIES
Mo 1.0  Mo.pbe-spn-kjpaw_psl.0.2.UPF
S  1.0  S.pbe-n-kjpaw_psl.0.1.UPF
ATOMIC_POSITIONS {crystal}
Mo       0.000000000   0.000000000   0.000000000
S        0.333333000   0.666667000   0.951000000
S        0.333333000   0.666667000   0.049000000
K_POINTS {crystal}
225
0.00000000 0.00000000 0.00000000 1.00000000
0.00000000 0.06666667 0.00000000 1.00000000
0.00000000 0.13333333 0.00000000 1.00000000
0.00000000 0.20000000 0.00000000 1.00000000
0.00000000 0.26666667 0.00000000 1.00000000
0.00000000 0.33333333 0.00000000 1.00000000
0.00000000 0.40000000 0.00000000 1.00000000
0.00000000 0.46666667 0.00000000 1.00000000
0.00000000 0.53333333 0.00000000 1.00000000
0.00000000 0.60000000 0.00000000 1.00000000
0.00000000 0.66666667 0.00000000 1.00000000
0.00000000 0.73333333 0.00000000 1.00000000
0.00000000 0.80000000 0.00000000 1.00000000
0.00000000 0.86666667 0.00000000 1.00000000
0.00000000 0.93333333 0.00000000 1.00000000
0.06666667 0.00000000 0.00000000 1.00000000
0.06666667 0.06666667 0.00000000 1.00000000
0.06666667 0.13333333 0.00000000 1.00000000
0.06666667 0.20000000 0.00000000 1.00000000
0.06666667 0.26666667 0.00000000 1.00000000
0.06666667 0.33333333 0.00000000 1.00000000
0.06666667 0.40000000 0.00000000 1.00000000
0.06666667 0.46666667 0.00000000 1.00000000
0.06666667 0.53333333 0.00000000 1.00000000
0.06666667 0.60000000 0.00000000 1.00000000
0.06666667 0.66666667 0.00000000 1.00000000
0.06666667 0.73333333 0.00000000 1.00000000
0.06666667 0.80000000 0.00000000 1.00000000
0.06666667 0.86666667 0.00000000 1.00000000
0.06666667 0.93333333 0.00000000 1.00000000
0.13333333 0.00000000 0.00000000 1.00000000
0.13333333 0.06666667 0.00000000 1.00000000
0.13333333 0.13333333 0.00000000 1.00000000
0.13333333 0.20000000 0.00000000 1.00000000
0.13333333 0.26666667 0.00000000 1.00000000
0.13333333 0.33333333 0.00000000 1.00000000
0.13333333 0.40000000 0.00000000 1.00000000
0.13333333 0.46666667 0.00000000 1.00000000
0.13333333 0.53333333 0.00000000 1.00000000
0.13333333 0.60000000 0.00000000 1.00000000
0.13333333 0.66666667 0.00000000 1.00000000
0.13333333 0.73333333 0.00000000 1.00000000
0.13333333 0.80000000 0.00000000 1.00000000
0.13333333 0.86666667 0.00000000 1.00000000
0.13333333 0.93333333 0.00000000 1.00000000
0.20000000 0.00000000 0.00000000 1.00000000
0.20000000 0.06666667 0.00000000 1.00000000
0.20000000 0.13333333 0.00000000 1.00000000
0.20000000 0.20000000 0.00000000 1.00000000
0.20000000 0.26666667 0.00000000 1.00000000
0.20000000 0.33333333 0.00000000 1.00000000
0.20000000 0.40000000 0.00000000 1.00000000
0.20000000 0.46666667 0.00000000 1.00000000
0.20000000 0.53333333 0.00000000 1.00000000
0.20000000 0.60000000 0.00000000 1.00000000
0.20000000 0.66666667 0.00000000 1.00000000
0.20000000 0.73333333 0.00000000 1.00000000
0.20000000 0.80000000 0.00000000 1.00000000
0.20000000 0.86666667 0.00000000 1.00000000
0.20000000 0.93333333 0.00000000 1.00000000
0.26666667 0.00000000 0.00000000 1.00000000
0.26666667 0.06666667 0.00000000 1.00000000
0.26666667 0.13333333 0.00000000 1.00000000
0.26666667 0.20000000 0.00000000 1.00000000
0.26666667 0.26666667 0.00000000 1.00000000
0.26666667 0.33333333 0.00000000 1.00000000
0.26666667 0.40000000 0.00000000 1.00000000
0.26666667 0.46666667 0.00000000 1.00000000
0.26666667 0.53333333 0.00000000 1.00000000
0.26666667 0.60000000 0.00000000 1.00000000
0.26666667 0.66666667 0.00000000 1.00000000
0.26666667 0.73333333 0.00000000 1.00000000
0.26666667 0.80000000 0.00000000 1.00000000
0.26666667 0.86666667 0.00000000 1.00000000
0.26666667 0.93333333 0.00000000 1.00000000
0.33333333 0.00000000 0.00000000 1.00000000
0.33333333 0.06666667 0.00000000 1.00000000
0.33333333 0.13333333 0.00000000 1.00000000
0.33333333 0.20000000 0.00000000 1.00000000
0.33333333 0.26666667 0.00000000 1.00000000
0.33333333 0.33333333 0.00000000 1.00000000
0.33333333 0.40000000 0.00000000 1.00000000
0.33333333 0.46666667 0.00000000 1.00000000
0.33333333 0.53333333 0.00000000 1.00000000
0.33333333 0.60000000 0.00000000 1.00000000
0.33333333 0.66666667 0.00000000 1.00000000
0.33333333 0.73333333 0.00000000 1.00000000
0.33333333 0.80000000 0.00000000 1.00000000
0.33333333 0.86666667 0.00000000 1.00000000
0.33333333 0.93333333 0.00000000 1.00000000
0.40000000 0.00000000 0.00000000 1.00000000
0.40000000 0.06666667 0.00000000 1.00000000
0.40000000 0.13333333 0.00000000 1.00000000
0.40000000 0.20000000 0.00000000 1.00000000
0.40000000 0.26666667 0.00000000 1.00000000
0.40000000 0.33333333 0.00000000 1.00000000
0.40000000 0.40000000 0.00000000 1.00000000
0.40000000 0.46666667 0.00000000 1.00000000
0.40000000 0.53333333 0.00000000 1.00000000
0.40000000 0.60000000 0.00000000 1.00000000
0.40000000 0.66666667 0.00000000 1.00000000
0.40000000 0.73333333 0.00000000 1.00000000
0.40000000 0.80000000 0.00000000 1.00000000
0.40000000 0.86666667 0.00000000 1.00000000
0.40000000 0.93333333 0.00000000 1.00000000
0.46666667 0.00000000 0.00000000 1.00000000
0.46666667 0.06666667 0.00000000 1.00000000
0.46666667 0.13333333 0.00000000 1.00000000
0.46666667 0.20000000 0.00000000 1.00000000
0.46666667 0.26666667 0.00000000 1.00000000
0.46666667 0.33333333 0.00000000 1.00000000
0.46666667 0.40000000 0.00000000 1.00000000
0.46666667 0.46666667 0.00000000 1.00000000
0.46666667 0.53333333 0.00000000 1.00000000
0.46666667 0.60000000 0.00000000 1.00000000
0.46666667 0.66666667 0.00000000 1.00000000
0.46666667 0.73333333 0.00000000 1.00000000
0.46666667 0.80000000 0.00000000 1.00000000
0.46666667 0.86666667 0.00000000 1.00000000
0.46666667 0.93333333 0.00000000 1.00000000
0.53333333 0.00000000 0.00000000 1.00000000
0.53333333 0.06666667 0.00000000 1.00000000
0.53333333 0.13333333 0.00000000 1.00000000
0.53333333 0.20000000 0.00000000 1.00000000
0.53333333 0.26666667 0.00000000 1.00000000
0.53333333 0.33333333 0.00000000 1.00000000
0.53333333 0.40000000 0.00000000 1.00000000
0.53333333 0.46666667 0.00000000 1.00000000
0.53333333 0.53333333 0.00000000 1.00000000
0.53333333 0.60000000 0.00000000 1.00000000
0.53333333 0.66666667 0.00000000 1.00000000
0.53333333 0.73333333 0.00000000 1.00000000
0.53333333 0.80000000 0.00000000 1.00000000
0.53333333 0.86666667 0.00000000 1.00000000
0.53333333 0.93333333 0.00000000 1.00000000
0.60000000 0.00000000 0.00000000 1.00000000
0.60000000 0.06666667 0.00000000 1.00000000
0.60000000 0.13333333 0.00000000 1.00000000
0.60000000 0.20000000 0.00000000 1.00000000
0.60000000 0.26666667 0.00000000 1.00000000
0.60000000 0.33333333 0.00000000 1.00000000
0.60000000 0.40000000 0.00000000 1.00000000
0.60000000 0.46666667 0.00000000 1.00000000
0.60000000 0.53333333 0.00000000 1.00000000
0.60000000 0.60000000 0.00000000 1.00000000
0.60000000 0.66666667 0.00000000 1.00000000
0.60000000 0.73333333 0.00000000 1.00000000
0.60000000 0.80000000 0.00000000 1.00000000
0.60000000 0.86666667 0.00000000 1.00000000
0.60000000 0.93333333 0.00000000 1.00000000
0.66666667 0.00000000 0.00000000 1.00000000
0.66666667 0.06666667 0.00000000 1.00000000
0.66666667 0.13333333 0.00000000 1.00000000
0.66666667 0.20000000 0.00000000 1.00000000
0.66666667 0.26666667 0.00000000 1.00000000
0.66666667 0.33333333 0.00000000 1.00000000
0.66666667 0.40000000 0.00000000 1.00000000
0.66666667 0.46666667 0.00000000 1.00000000
0.66666667 0.53333333 0.00000000 1.00000000
0.66666667 0.60000000 0.00000000 1.00000000
0.66666667 0.66666667 0.00000000 1.00000000
0.66666667 0.73333333 0.00000000 1.00000000
0.66666667 0.80000000 0.00000000 1.00000000
0.66666667 0.86666667 0.00000000 1.00000000
0.66666667 0.93333333 0.00000000 1.00000000
0.73333333 0.00000000 0.00000000 1.00000000
0.73333333 0.06666667 0.00000000 1.00000000
0.73333333 0.13333333 0.00000000 1.00000000
0.73333333 0.20000000 0.00000000 1.00000000
0.73333333 0.26666667 0.00000000 1.00000000
0.73333333 0.33333333 0.00000000 1.00000000
0.73333333 0.40000000 0.00000000 1.00000000
0.73333333 0.46666667 0.00000000 1.00000000
0.73333333 0.53333333 0.00000000 1.00000000
0.73333333 0.60000000 0.00000000 1.00000000
0.73333333 0.66666667 0.00000000 1.00000000
0.73333333 0.73333333 0.00000000 1.00000000
0.73333333 0.80000000 0.00000000 1.00000000
0.73333333 0.86666667 0.00000000 1.00000000
0.73333333 0.93333333 0.00000000 1.00000000
0.80000000 0.00000000 0.00000000 1.00000000
0.80000000 0.06666667 0.00000000 1.00000000
0.80000000 0.13333333 0.00000000 1.00000000
0.80000000 0.20000000 0.00000000 1.00000000
0.80000000 0.26666667 0.00000000 1.00000000
0.80000000 0.33333333 0.00000000 1.00000000
0.80000000 0.40000000 0.00000000 1.00000000
0.80000000 0.46666667 0.00000000 1.00000000
0.80000000 0.53333333 0.00000000 1.00000000
0.80000000 0.60000000 0.00000000 1.00000000
0.80000000 0.66666667 0.00000000 1.00000000
0.80000000 0.73333333 0.00000000 1.00000000
0.80000000 0.80000000 0.00000000 1.00000000
0.80000000 0.86666667 0.00000000 1.00000000
0.80000000 0.93333333 0.00000000 1.00000000
0.86666667 0.00000000 0.00000000 1.00000000
0.86666667 0.06666667 0.00000000 1.00000000
0.86666667 0.13333333 0.00000000 1.00000000
0.86666667 0.20000000 0.00000000 1.00000000
0.86666667 0.26666667 0.00000000 1.00000000
0.86666667 0.33333333 0.00000000 1.00000000
0.86666667 0.40000000 0.00000000 1.00000000
0.86666667 0.46666667 0.00000000 1.00000000
0.86666667 0.53333333 0.00000000 1.00000000
0.86666667 0.60000000 0.00000000 1.00000000
0.86666667 0.66666667 0.00000000 1.00000000
0.86666667 0.73333333 0.00000000 1.00000000
0.86666667 0.80000000 0.00000000 1.00000000
0.86666667 0.86666667 0.00000000 1.00000000
0.86666667 0.93333333 0.00000000 1.00000000
0.93333333 0.00000000 0.00000000 1.00000000
0.93333333 0.06666667 0.00000000 1.00000000
0.93333333 0.13333333 0.00000000 1.00000000
0.93333333 0.20000000 0.00000000 1.00000000
0.93333333 0.26666667 0.00000000 1.00000000
0.93333333 0.33333333 0.00000000 1.00000000
0.93333333 0.40000000 0.00000000 1.00000000
0.93333333 0.46666667 0.00000000 1.00000000
0.93333333 0.53333333 0.00000000 1.00000000
0.93333333 0.60000000 0.00000000 1.00000000
0.93333333 0.66666667 0.00000000 1.00000000
0.93333333 0.73333333 0.00000000 1.00000000
0.93333333 0.80000000 0.00000000 1.00000000
0.93333333 0.86666667 0.00000000 1.00000000
0.93333333 0.93333333 0.00000000 1.00000000
