!num_bands	= 17
num_wann        = 5
num_iter        = 100
hr_plot		= .true.
bands_plot 	= .true.

!wannier_plot 	= .true.
!wannier_plot_list = 1-5
!wannier_plot_supercell = 3 3 2
!restart = plot

!here we exclude all bands except the O2p bands
exclude_bands : 1,2,3,4,5,6,7,8,9,10,11,12


guiding_centres = T
begin projections
  Mo:d
end projections

begin unit_cell_cart
  Bohr 
   6.0350000   0.0000000   0.0000000
  -3.0175000   5.2264633   0.0000000
   0.0000000   0.0000000  60.3000000
end unit_cell_cart

begin atoms_frac
  Mo 0.0 0.0 0.0
  S  0.333333 0.666667 0.951000
  S  0.333333 0.666667 0.049000
end atoms_frac

!!! BZ-Path for band structure !!!
begin kpoint_path
  G  0.00  0.00  0.00   S  0.25  0.00  0.00
  S  0.25  0.00  0.00   M  0.50  0.00  0.00
  M  0.50  0.00  0.00   K  0.33  0.33  0.00
  K  0.33  0.33  0.00   L  0.17  0.17  0.00
  L  0.17  0.17  0.00   G  0.00  0.00  0.00
  G  0.00  0.00  0.00   D  0.00  0.00  0.25
  D  0.00  0.00  0.25   A  0.00  0.00  0.50
end kpoint_path


mp_grid 	= 15 15 1

begin kpoints
0.00000000 0.00000000 0.00000000 1.00000000
0.00000000 0.06666667 0.00000000 1.00000000
0.00000000 0.13333333 0.00000000 1.00000000
0.00000000 0.20000000 0.00000000 1.00000000
0.00000000 0.26666667 0.00000000 1.00000000
0.00000000 0.33333333 0.00000000 1.00000000
0.00000000 0.40000000 0.00000000 1.00000000
0.00000000 0.46666667 0.00000000 1.00000000
0.00000000 0.53333333 0.00000000 1.00000000
0.00000000 0.60000000 0.00000000 1.00000000
0.00000000 0.66666667 0.00000000 1.00000000
0.00000000 0.73333333 0.00000000 1.00000000
0.00000000 0.80000000 0.00000000 1.00000000
0.00000000 0.86666667 0.00000000 1.00000000
0.00000000 0.93333333 0.00000000 1.00000000
0.06666667 0.00000000 0.00000000 1.00000000
0.06666667 0.06666667 0.00000000 1.00000000
0.06666667 0.13333333 0.00000000 1.00000000
0.06666667 0.20000000 0.00000000 1.00000000
0.06666667 0.26666667 0.00000000 1.00000000
0.06666667 0.33333333 0.00000000 1.00000000
0.06666667 0.40000000 0.00000000 1.00000000
0.06666667 0.46666667 0.00000000 1.00000000
0.06666667 0.53333333 0.00000000 1.00000000
0.06666667 0.60000000 0.00000000 1.00000000
0.06666667 0.66666667 0.00000000 1.00000000
0.06666667 0.73333333 0.00000000 1.00000000
0.06666667 0.80000000 0.00000000 1.00000000
0.06666667 0.86666667 0.00000000 1.00000000
0.06666667 0.93333333 0.00000000 1.00000000
0.13333333 0.00000000 0.00000000 1.00000000
0.13333333 0.06666667 0.00000000 1.00000000
0.13333333 0.13333333 0.00000000 1.00000000
0.13333333 0.20000000 0.00000000 1.00000000
0.13333333 0.26666667 0.00000000 1.00000000
0.13333333 0.33333333 0.00000000 1.00000000
0.13333333 0.40000000 0.00000000 1.00000000
0.13333333 0.46666667 0.00000000 1.00000000
0.13333333 0.53333333 0.00000000 1.00000000
0.13333333 0.60000000 0.00000000 1.00000000
0.13333333 0.66666667 0.00000000 1.00000000
0.13333333 0.73333333 0.00000000 1.00000000
0.13333333 0.80000000 0.00000000 1.00000000
0.13333333 0.86666667 0.00000000 1.00000000
0.13333333 0.93333333 0.00000000 1.00000000
0.20000000 0.00000000 0.00000000 1.00000000
0.20000000 0.06666667 0.00000000 1.00000000
0.20000000 0.13333333 0.00000000 1.00000000
0.20000000 0.20000000 0.00000000 1.00000000
0.20000000 0.26666667 0.00000000 1.00000000
0.20000000 0.33333333 0.00000000 1.00000000
0.20000000 0.40000000 0.00000000 1.00000000
0.20000000 0.46666667 0.00000000 1.00000000
0.20000000 0.53333333 0.00000000 1.00000000
0.20000000 0.60000000 0.00000000 1.00000000
0.20000000 0.66666667 0.00000000 1.00000000
0.20000000 0.73333333 0.00000000 1.00000000
0.20000000 0.80000000 0.00000000 1.00000000
0.20000000 0.86666667 0.00000000 1.00000000
0.20000000 0.93333333 0.00000000 1.00000000
0.26666667 0.00000000 0.00000000 1.00000000
0.26666667 0.06666667 0.00000000 1.00000000
0.26666667 0.13333333 0.00000000 1.00000000
0.26666667 0.20000000 0.00000000 1.00000000
0.26666667 0.26666667 0.00000000 1.00000000
0.26666667 0.33333333 0.00000000 1.00000000
0.26666667 0.40000000 0.00000000 1.00000000
0.26666667 0.46666667 0.00000000 1.00000000
0.26666667 0.53333333 0.00000000 1.00000000
0.26666667 0.60000000 0.00000000 1.00000000
0.26666667 0.66666667 0.00000000 1.00000000
0.26666667 0.73333333 0.00000000 1.00000000
0.26666667 0.80000000 0.00000000 1.00000000
0.26666667 0.86666667 0.00000000 1.00000000
0.26666667 0.93333333 0.00000000 1.00000000
0.33333333 0.00000000 0.00000000 1.00000000
0.33333333 0.06666667 0.00000000 1.00000000
0.33333333 0.13333333 0.00000000 1.00000000
0.33333333 0.20000000 0.00000000 1.00000000
0.33333333 0.26666667 0.00000000 1.00000000
0.33333333 0.33333333 0.00000000 1.00000000
0.33333333 0.40000000 0.00000000 1.00000000
0.33333333 0.46666667 0.00000000 1.00000000
0.33333333 0.53333333 0.00000000 1.00000000
0.33333333 0.60000000 0.00000000 1.00000000
0.33333333 0.66666667 0.00000000 1.00000000
0.33333333 0.73333333 0.00000000 1.00000000
0.33333333 0.80000000 0.00000000 1.00000000
0.33333333 0.86666667 0.00000000 1.00000000
0.33333333 0.93333333 0.00000000 1.00000000
0.40000000 0.00000000 0.00000000 1.00000000
0.40000000 0.06666667 0.00000000 1.00000000
0.40000000 0.13333333 0.00000000 1.00000000
0.40000000 0.20000000 0.00000000 1.00000000
0.40000000 0.26666667 0.00000000 1.00000000
0.40000000 0.33333333 0.00000000 1.00000000
0.40000000 0.40000000 0.00000000 1.00000000
0.40000000 0.46666667 0.00000000 1.00000000
0.40000000 0.53333333 0.00000000 1.00000000
0.40000000 0.60000000 0.00000000 1.00000000
0.40000000 0.66666667 0.00000000 1.00000000
0.40000000 0.73333333 0.00000000 1.00000000
0.40000000 0.80000000 0.00000000 1.00000000
0.40000000 0.86666667 0.00000000 1.00000000
0.40000000 0.93333333 0.00000000 1.00000000
0.46666667 0.00000000 0.00000000 1.00000000
0.46666667 0.06666667 0.00000000 1.00000000
0.46666667 0.13333333 0.00000000 1.00000000
0.46666667 0.20000000 0.00000000 1.00000000
0.46666667 0.26666667 0.00000000 1.00000000
0.46666667 0.33333333 0.00000000 1.00000000
0.46666667 0.40000000 0.00000000 1.00000000
0.46666667 0.46666667 0.00000000 1.00000000
0.46666667 0.53333333 0.00000000 1.00000000
0.46666667 0.60000000 0.00000000 1.00000000
0.46666667 0.66666667 0.00000000 1.00000000
0.46666667 0.73333333 0.00000000 1.00000000
0.46666667 0.80000000 0.00000000 1.00000000
0.46666667 0.86666667 0.00000000 1.00000000
0.46666667 0.93333333 0.00000000 1.00000000
0.53333333 0.00000000 0.00000000 1.00000000
0.53333333 0.06666667 0.00000000 1.00000000
0.53333333 0.13333333 0.00000000 1.00000000
0.53333333 0.20000000 0.00000000 1.00000000
0.53333333 0.26666667 0.00000000 1.00000000
0.53333333 0.33333333 0.00000000 1.00000000
0.53333333 0.40000000 0.00000000 1.00000000
0.53333333 0.46666667 0.00000000 1.00000000
0.53333333 0.53333333 0.00000000 1.00000000
0.53333333 0.60000000 0.00000000 1.00000000
0.53333333 0.66666667 0.00000000 1.00000000
0.53333333 0.73333333 0.00000000 1.00000000
0.53333333 0.80000000 0.00000000 1.00000000
0.53333333 0.86666667 0.00000000 1.00000000
0.53333333 0.93333333 0.00000000 1.00000000
0.60000000 0.00000000 0.00000000 1.00000000
0.60000000 0.06666667 0.00000000 1.00000000
0.60000000 0.13333333 0.00000000 1.00000000
0.60000000 0.20000000 0.00000000 1.00000000
0.60000000 0.26666667 0.00000000 1.00000000
0.60000000 0.33333333 0.00000000 1.00000000
0.60000000 0.40000000 0.00000000 1.00000000
0.60000000 0.46666667 0.00000000 1.00000000
0.60000000 0.53333333 0.00000000 1.00000000
0.60000000 0.60000000 0.00000000 1.00000000
0.60000000 0.66666667 0.00000000 1.00000000
0.60000000 0.73333333 0.00000000 1.00000000
0.60000000 0.80000000 0.00000000 1.00000000
0.60000000 0.86666667 0.00000000 1.00000000
0.60000000 0.93333333 0.00000000 1.00000000
0.66666667 0.00000000 0.00000000 1.00000000
0.66666667 0.06666667 0.00000000 1.00000000
0.66666667 0.13333333 0.00000000 1.00000000
0.66666667 0.20000000 0.00000000 1.00000000
0.66666667 0.26666667 0.00000000 1.00000000
0.66666667 0.33333333 0.00000000 1.00000000
0.66666667 0.40000000 0.00000000 1.00000000
0.66666667 0.46666667 0.00000000 1.00000000
0.66666667 0.53333333 0.00000000 1.00000000
0.66666667 0.60000000 0.00000000 1.00000000
0.66666667 0.66666667 0.00000000 1.00000000
0.66666667 0.73333333 0.00000000 1.00000000
0.66666667 0.80000000 0.00000000 1.00000000
0.66666667 0.86666667 0.00000000 1.00000000
0.66666667 0.93333333 0.00000000 1.00000000
0.73333333 0.00000000 0.00000000 1.00000000
0.73333333 0.06666667 0.00000000 1.00000000
0.73333333 0.13333333 0.00000000 1.00000000
0.73333333 0.20000000 0.00000000 1.00000000
0.73333333 0.26666667 0.00000000 1.00000000
0.73333333 0.33333333 0.00000000 1.00000000
0.73333333 0.40000000 0.00000000 1.00000000
0.73333333 0.46666667 0.00000000 1.00000000
0.73333333 0.53333333 0.00000000 1.00000000
0.73333333 0.60000000 0.00000000 1.00000000
0.73333333 0.66666667 0.00000000 1.00000000
0.73333333 0.73333333 0.00000000 1.00000000
0.73333333 0.80000000 0.00000000 1.00000000
0.73333333 0.86666667 0.00000000 1.00000000
0.73333333 0.93333333 0.00000000 1.00000000
0.80000000 0.00000000 0.00000000 1.00000000
0.80000000 0.06666667 0.00000000 1.00000000
0.80000000 0.13333333 0.00000000 1.00000000
0.80000000 0.20000000 0.00000000 1.00000000
0.80000000 0.26666667 0.00000000 1.00000000
0.80000000 0.33333333 0.00000000 1.00000000
0.80000000 0.40000000 0.00000000 1.00000000
0.80000000 0.46666667 0.00000000 1.00000000
0.80000000 0.53333333 0.00000000 1.00000000
0.80000000 0.60000000 0.00000000 1.00000000
0.80000000 0.66666667 0.00000000 1.00000000
0.80000000 0.73333333 0.00000000 1.00000000
0.80000000 0.80000000 0.00000000 1.00000000
0.80000000 0.86666667 0.00000000 1.00000000
0.80000000 0.93333333 0.00000000 1.00000000
0.86666667 0.00000000 0.00000000 1.00000000
0.86666667 0.06666667 0.00000000 1.00000000
0.86666667 0.13333333 0.00000000 1.00000000
0.86666667 0.20000000 0.00000000 1.00000000
0.86666667 0.26666667 0.00000000 1.00000000
0.86666667 0.33333333 0.00000000 1.00000000
0.86666667 0.40000000 0.00000000 1.00000000
0.86666667 0.46666667 0.00000000 1.00000000
0.86666667 0.53333333 0.00000000 1.00000000
0.86666667 0.60000000 0.00000000 1.00000000
0.86666667 0.66666667 0.00000000 1.00000000
0.86666667 0.73333333 0.00000000 1.00000000
0.86666667 0.80000000 0.00000000 1.00000000
0.86666667 0.86666667 0.00000000 1.00000000
0.86666667 0.93333333 0.00000000 1.00000000
0.93333333 0.00000000 0.00000000 1.00000000
0.93333333 0.06666667 0.00000000 1.00000000
0.93333333 0.13333333 0.00000000 1.00000000
0.93333333 0.20000000 0.00000000 1.00000000
0.93333333 0.26666667 0.00000000 1.00000000
0.93333333 0.33333333 0.00000000 1.00000000
0.93333333 0.40000000 0.00000000 1.00000000
0.93333333 0.46666667 0.00000000 1.00000000
0.93333333 0.53333333 0.00000000 1.00000000
0.93333333 0.60000000 0.00000000 1.00000000
0.93333333 0.66666667 0.00000000 1.00000000
0.93333333 0.73333333 0.00000000 1.00000000
0.93333333 0.80000000 0.00000000 1.00000000
0.93333333 0.86666667 0.00000000 1.00000000
0.93333333 0.93333333 0.00000000 1.00000000
end kpoints
