 &control
    calculation = 'relax'
    restart_mode='from_scratch',
    prefix='MoS2_a602',
    outdir='/scratch2/scratchdirs/chunjing/tmp_espresso/'
 /
 &system
    ibrav=  4, celldm(1)= 6.020000, celldm(3)= 10.01661,
    nat=  3, ntyp= 2, ecutwfc = 40.0, ecutrho = 450,
    occupations='smearing', smearing='methfessel-paxton',
    degauss=0.05,
 /
 &electrons
    conv_thr =  1.0d-10
    mixing_beta = 0.3d0
 /
 &ions
    bfgs_ndim = 3,
 /
ATOMIC_SPECIES
Mo 1.0  Mo.pbe-spn-kjpaw_psl.0.2.UPF
S  1.0  S.pbe-n-kjpaw_psl.0.1.UPF
ATOMIC_POSITIONS {crystal}
Mo       0.000000000   0.000000000   0.000000000
S        0.333333000   0.666667000   0.950526377
S        0.333333000   0.666667000   0.049473623
K_POINTS {automatic}
15 15  1  0 0 0
