 &control
    calculation = 'relax'
    restart_mode='from_scratch',
    prefix='MoS2_a601',
    outdir='/scratch2/scratchdirs/chunjing/tmp_espresso/'
 /
 &system
    ibrav=  4, celldm(1)= 6.010000, celldm(3)= 10.033278,
    nat=  3, ntyp= 2, ecutwfc = 40.0, ecutrho = 450,
    occupations='smearing', smearing='methfessel-paxton',
    degauss=0.05,
 /
 &electrons
    conv_thr =  1.0d-10
    mixing_beta = 0.3d0
 /
 &ions
    bfgs_ndim = 3,
 /
ATOMIC_SPECIES
Mo 1.0  Mo.pbe-spn-kjpaw_psl.0.2.UPF
S  1.0  S.pbe-n-kjpaw_psl.0.1.UPF
ATOMIC_POSITIONS {crystal}
Mo 0.0 0.0 0.0
S  0.333333 0.666667 0.943669
S  0.333333 0.666667 0.056331
K_POINTS {automatic}
15 15  1  0 0 0
